objective value:                                    0
lambda[1,16]*                                       4 	(obj:0)
lambda[1,17]*                                       4 	(obj:0)
lambda[1,19]*                                       2 	(obj:0)
lambda[0,22]*                                       6 	(obj:0)
lambda[0,23]*                                       3 	(obj:0)
lambda[0,24]*                                       1 	(obj:0)
